CPXPARAM_Emphasis_MIP#P8#1#CPXPARAM_MIP_Limits_GomoryCand#P25#200#2.332397#0.439932
CPXPARAM_Emphasis_MIP#P8#1#CPXPARAM_MIP_Limits_GomoryCand#P25#400#2.332387#0.439930
CPXPARAM_Emphasis_MIP#P8#2#CPXPARAM_MIP_Limits_GomoryCand#P25#200#1.761522#0.332254
CPXPARAM_Emphasis_MIP#P8#2#CPXPARAM_MIP_Limits_GomoryCand#P25#400#1.761533#0.332257
CPXPARAM_Emphasis_MIP#P8#3#CPXPARAM_MIP_Limits_GomoryCand#P25#200#1.761520#0.332254
CPXPARAM_Emphasis_MIP#P8#3#CPXPARAM_MIP_Limits_GomoryCand#P25#400#1.761522#0.332255
CPXPARAM_Emphasis_MIP#P8#5#CPXPARAM_MIP_Limits_GomoryCand#P25#200#5.301724#1.000000
CPXPARAM_Emphasis_MIP#P8#5#CPXPARAM_MIP_Limits_GomoryCand#P25#400#3.718950#0.701460
CPXPARAM_MIP_Cuts_MIRCut#P20#2#CPXPARAM_MIP_Limits_GomoryCand#P25#400#3.880562#0.731943
